DIMENSION: 5
NODE_COORD_SECTION
1 216.9822846671 -138.5190725505
2 -166.1678594665 -5.4001301236
3 67.3389720234 -336.7346938776
4 -516.1465400271 -5556.7567567568
5 -69.8328935796 -456.5807327001
EOF